(set-logic QF_LRA)
(declare-fun X0 () Real )
(declare-fun Y0 () Real )
(declare-fun X1 () Real )
(declare-fun Y1 () Real )
(declare-fun X2 () Real )
(declare-fun Y2 () Real )
(declare-fun X3 () Real )
(declare-fun Y3 () Real )
(declare-fun X4 () Real )
(declare-fun Y4 () Real )
(declare-fun X5 () Real )
(declare-fun Y5 () Real )
(declare-fun X6 () Real )
(declare-fun Y6 () Real )
(declare-fun X7 () Real )
(declare-fun Y7 () Real )
(declare-fun X8 () Real )
(declare-fun Y8 () Real )
(declare-fun X9 () Real )
(declare-fun Y9 () Real )
(declare-fun X10 () Real )
(declare-fun Y10 () Real )
(declare-fun X11 () Real )
(declare-fun Y11 () Real )
(declare-fun X12 () Real )
(declare-fun Y12 () Real )
(declare-fun X13 () Real )
(declare-fun Y13 () Real )
(declare-fun X14 () Real )
(declare-fun Y14 () Real )
(declare-fun Z () Real )
(declare-fun k () Real )
(assert (let
(( $goal (>= Z k) ))
(let
((
$phi ( and 
( or ( <= ( + X0 99 ) X1 )  ( <= ( + X1 59 ) X0 )  ( <= ( + Y0 13 ) Y1 )  ( <= ( + Y1 48 ) Y0 )  )
( or ( <= ( + X0 99 ) X2 )  ( <= ( + X2 57 ) X0 )  ( <= ( + Y0 13 ) Y2 )  ( <= ( + Y2 51 ) Y0 )  )
( or ( <= ( + X0 99 ) X3 )  ( <= ( + X3 73 ) X0 )  ( <= ( + Y0 13 ) Y3 )  ( <= ( + Y3 46 ) Y0 )  )
( or ( <= ( + X0 99 ) X4 )  ( <= ( + X4 42 ) X0 )  ( <= ( + Y0 13 ) Y4 )  ( <= ( + Y4 48 ) Y0 )  )
( or ( <= ( + X0 99 ) X5 )  ( <= ( + X5 64 ) X0 )  ( <= ( + Y0 13 ) Y5 )  ( <= ( + Y5 34 ) Y0 )  )
( or ( <= ( + X0 99 ) X6 )  ( <= ( + X6 98 ) X0 )  ( <= ( + Y0 13 ) Y6 )  ( <= ( + Y6 15 ) Y0 )  )
( or ( <= ( + X0 99 ) X7 )  ( <= ( + X7 44 ) X0 )  ( <= ( + Y0 13 ) Y7 )  ( <= ( + Y7 42 ) Y0 )  )
( or ( <= ( + X0 99 ) X8 )  ( <= ( + X8 44 ) X0 )  ( <= ( + Y0 13 ) Y8 )  ( <= ( + Y8 3 ) Y0 )  )
( or ( <= ( + X0 99 ) X9 )  ( <= ( + X9 53 ) X0 )  ( <= ( + Y0 13 ) Y9 )  ( <= ( + Y9 80 ) Y0 )  )
( or ( <= ( + X0 99 ) X10 )  ( <= ( + X10 84 ) X0 )  ( <= ( + Y0 13 ) Y10 )  ( <= ( + Y10 51 ) Y0 )  )
( or ( <= ( + X0 99 ) X11 )  ( <= ( + X11 20 ) X0 )  ( <= ( + Y0 13 ) Y11 )  ( <= ( + Y11 26 ) Y0 )  )
( or ( <= ( + X0 99 ) X12 )  ( <= ( + X12 9 ) X0 )  ( <= ( + Y0 13 ) Y12 )  ( <= ( + Y12 97 ) Y0 )  )
( or ( <= ( + X0 99 ) X13 )  ( <= ( + X13 49 ) X0 )  ( <= ( + Y0 13 ) Y13 )  ( <= ( + Y13 27 ) Y0 )  )
( or ( <= ( + X0 99 ) X14 )  ( <= ( + X14 97 ) X0 )  ( <= ( + Y0 13 ) Y14 )  ( <= ( + Y14 59 ) Y0 )  )
( or ( <= ( + X1 59 ) X2 )  ( <= ( + X2 57 ) X1 )  ( <= ( + Y1 48 ) Y2 )  ( <= ( + Y2 51 ) Y1 )  )
( or ( <= ( + X1 59 ) X3 )  ( <= ( + X3 73 ) X1 )  ( <= ( + Y1 48 ) Y3 )  ( <= ( + Y3 46 ) Y1 )  )
( or ( <= ( + X1 59 ) X4 )  ( <= ( + X4 42 ) X1 )  ( <= ( + Y1 48 ) Y4 )  ( <= ( + Y4 48 ) Y1 )  )
( or ( <= ( + X1 59 ) X5 )  ( <= ( + X5 64 ) X1 )  ( <= ( + Y1 48 ) Y5 )  ( <= ( + Y5 34 ) Y1 )  )
( or ( <= ( + X1 59 ) X6 )  ( <= ( + X6 98 ) X1 )  ( <= ( + Y1 48 ) Y6 )  ( <= ( + Y6 15 ) Y1 )  )
( or ( <= ( + X1 59 ) X7 )  ( <= ( + X7 44 ) X1 )  ( <= ( + Y1 48 ) Y7 )  ( <= ( + Y7 42 ) Y1 )  )
( or ( <= ( + X1 59 ) X8 )  ( <= ( + X8 44 ) X1 )  ( <= ( + Y1 48 ) Y8 )  ( <= ( + Y8 3 ) Y1 )  )
( or ( <= ( + X1 59 ) X9 )  ( <= ( + X9 53 ) X1 )  ( <= ( + Y1 48 ) Y9 )  ( <= ( + Y9 80 ) Y1 )  )
( or ( <= ( + X1 59 ) X10 )  ( <= ( + X10 84 ) X1 )  ( <= ( + Y1 48 ) Y10 )  ( <= ( + Y10 51 ) Y1 )  )
( or ( <= ( + X1 59 ) X11 )  ( <= ( + X11 20 ) X1 )  ( <= ( + Y1 48 ) Y11 )  ( <= ( + Y11 26 ) Y1 )  )
( or ( <= ( + X1 59 ) X12 )  ( <= ( + X12 9 ) X1 )  ( <= ( + Y1 48 ) Y12 )  ( <= ( + Y12 97 ) Y1 )  )
( or ( <= ( + X1 59 ) X13 )  ( <= ( + X13 49 ) X1 )  ( <= ( + Y1 48 ) Y13 )  ( <= ( + Y13 27 ) Y1 )  )
( or ( <= ( + X1 59 ) X14 )  ( <= ( + X14 97 ) X1 )  ( <= ( + Y1 48 ) Y14 )  ( <= ( + Y14 59 ) Y1 )  )
( or ( <= ( + X2 57 ) X3 )  ( <= ( + X3 73 ) X2 )  ( <= ( + Y2 51 ) Y3 )  ( <= ( + Y3 46 ) Y2 )  )
( or ( <= ( + X2 57 ) X4 )  ( <= ( + X4 42 ) X2 )  ( <= ( + Y2 51 ) Y4 )  ( <= ( + Y4 48 ) Y2 )  )
( or ( <= ( + X2 57 ) X5 )  ( <= ( + X5 64 ) X2 )  ( <= ( + Y2 51 ) Y5 )  ( <= ( + Y5 34 ) Y2 )  )
( or ( <= ( + X2 57 ) X6 )  ( <= ( + X6 98 ) X2 )  ( <= ( + Y2 51 ) Y6 )  ( <= ( + Y6 15 ) Y2 )  )
( or ( <= ( + X2 57 ) X7 )  ( <= ( + X7 44 ) X2 )  ( <= ( + Y2 51 ) Y7 )  ( <= ( + Y7 42 ) Y2 )  )
( or ( <= ( + X2 57 ) X8 )  ( <= ( + X8 44 ) X2 )  ( <= ( + Y2 51 ) Y8 )  ( <= ( + Y8 3 ) Y2 )  )
( or ( <= ( + X2 57 ) X9 )  ( <= ( + X9 53 ) X2 )  ( <= ( + Y2 51 ) Y9 )  ( <= ( + Y9 80 ) Y2 )  )
( or ( <= ( + X2 57 ) X10 )  ( <= ( + X10 84 ) X2 )  ( <= ( + Y2 51 ) Y10 )  ( <= ( + Y10 51 ) Y2 )  )
( or ( <= ( + X2 57 ) X11 )  ( <= ( + X11 20 ) X2 )  ( <= ( + Y2 51 ) Y11 )  ( <= ( + Y11 26 ) Y2 )  )
( or ( <= ( + X2 57 ) X12 )  ( <= ( + X12 9 ) X2 )  ( <= ( + Y2 51 ) Y12 )  ( <= ( + Y12 97 ) Y2 )  )
( or ( <= ( + X2 57 ) X13 )  ( <= ( + X13 49 ) X2 )  ( <= ( + Y2 51 ) Y13 )  ( <= ( + Y13 27 ) Y2 )  )
( or ( <= ( + X2 57 ) X14 )  ( <= ( + X14 97 ) X2 )  ( <= ( + Y2 51 ) Y14 )  ( <= ( + Y14 59 ) Y2 )  )
( or ( <= ( + X3 73 ) X4 )  ( <= ( + X4 42 ) X3 )  ( <= ( + Y3 46 ) Y4 )  ( <= ( + Y4 48 ) Y3 )  )
( or ( <= ( + X3 73 ) X5 )  ( <= ( + X5 64 ) X3 )  ( <= ( + Y3 46 ) Y5 )  ( <= ( + Y5 34 ) Y3 )  )
( or ( <= ( + X3 73 ) X6 )  ( <= ( + X6 98 ) X3 )  ( <= ( + Y3 46 ) Y6 )  ( <= ( + Y6 15 ) Y3 )  )
( or ( <= ( + X3 73 ) X7 )  ( <= ( + X7 44 ) X3 )  ( <= ( + Y3 46 ) Y7 )  ( <= ( + Y7 42 ) Y3 )  )
( or ( <= ( + X3 73 ) X8 )  ( <= ( + X8 44 ) X3 )  ( <= ( + Y3 46 ) Y8 )  ( <= ( + Y8 3 ) Y3 )  )
( or ( <= ( + X3 73 ) X9 )  ( <= ( + X9 53 ) X3 )  ( <= ( + Y3 46 ) Y9 )  ( <= ( + Y9 80 ) Y3 )  )
( or ( <= ( + X3 73 ) X10 )  ( <= ( + X10 84 ) X3 )  ( <= ( + Y3 46 ) Y10 )  ( <= ( + Y10 51 ) Y3 )  )
( or ( <= ( + X3 73 ) X11 )  ( <= ( + X11 20 ) X3 )  ( <= ( + Y3 46 ) Y11 )  ( <= ( + Y11 26 ) Y3 )  )
( or ( <= ( + X3 73 ) X12 )  ( <= ( + X12 9 ) X3 )  ( <= ( + Y3 46 ) Y12 )  ( <= ( + Y12 97 ) Y3 )  )
( or ( <= ( + X3 73 ) X13 )  ( <= ( + X13 49 ) X3 )  ( <= ( + Y3 46 ) Y13 )  ( <= ( + Y13 27 ) Y3 )  )
( or ( <= ( + X3 73 ) X14 )  ( <= ( + X14 97 ) X3 )  ( <= ( + Y3 46 ) Y14 )  ( <= ( + Y14 59 ) Y3 )  )
( or ( <= ( + X4 42 ) X5 )  ( <= ( + X5 64 ) X4 )  ( <= ( + Y4 48 ) Y5 )  ( <= ( + Y5 34 ) Y4 )  )
( or ( <= ( + X4 42 ) X6 )  ( <= ( + X6 98 ) X4 )  ( <= ( + Y4 48 ) Y6 )  ( <= ( + Y6 15 ) Y4 )  )
( or ( <= ( + X4 42 ) X7 )  ( <= ( + X7 44 ) X4 )  ( <= ( + Y4 48 ) Y7 )  ( <= ( + Y7 42 ) Y4 )  )
( or ( <= ( + X4 42 ) X8 )  ( <= ( + X8 44 ) X4 )  ( <= ( + Y4 48 ) Y8 )  ( <= ( + Y8 3 ) Y4 )  )
( or ( <= ( + X4 42 ) X9 )  ( <= ( + X9 53 ) X4 )  ( <= ( + Y4 48 ) Y9 )  ( <= ( + Y9 80 ) Y4 )  )
( or ( <= ( + X4 42 ) X10 )  ( <= ( + X10 84 ) X4 )  ( <= ( + Y4 48 ) Y10 )  ( <= ( + Y10 51 ) Y4 )  )
( or ( <= ( + X4 42 ) X11 )  ( <= ( + X11 20 ) X4 )  ( <= ( + Y4 48 ) Y11 )  ( <= ( + Y11 26 ) Y4 )  )
( or ( <= ( + X4 42 ) X12 )  ( <= ( + X12 9 ) X4 )  ( <= ( + Y4 48 ) Y12 )  ( <= ( + Y12 97 ) Y4 )  )
( or ( <= ( + X4 42 ) X13 )  ( <= ( + X13 49 ) X4 )  ( <= ( + Y4 48 ) Y13 )  ( <= ( + Y13 27 ) Y4 )  )
( or ( <= ( + X4 42 ) X14 )  ( <= ( + X14 97 ) X4 )  ( <= ( + Y4 48 ) Y14 )  ( <= ( + Y14 59 ) Y4 )  )
( or ( <= ( + X5 64 ) X6 )  ( <= ( + X6 98 ) X5 )  ( <= ( + Y5 34 ) Y6 )  ( <= ( + Y6 15 ) Y5 )  )
( or ( <= ( + X5 64 ) X7 )  ( <= ( + X7 44 ) X5 )  ( <= ( + Y5 34 ) Y7 )  ( <= ( + Y7 42 ) Y5 )  )
( or ( <= ( + X5 64 ) X8 )  ( <= ( + X8 44 ) X5 )  ( <= ( + Y5 34 ) Y8 )  ( <= ( + Y8 3 ) Y5 )  )
( or ( <= ( + X5 64 ) X9 )  ( <= ( + X9 53 ) X5 )  ( <= ( + Y5 34 ) Y9 )  ( <= ( + Y9 80 ) Y5 )  )
( or ( <= ( + X5 64 ) X10 )  ( <= ( + X10 84 ) X5 )  ( <= ( + Y5 34 ) Y10 )  ( <= ( + Y10 51 ) Y5 )  )
( or ( <= ( + X5 64 ) X11 )  ( <= ( + X11 20 ) X5 )  ( <= ( + Y5 34 ) Y11 )  ( <= ( + Y11 26 ) Y5 )  )
( or ( <= ( + X5 64 ) X12 )  ( <= ( + X12 9 ) X5 )  ( <= ( + Y5 34 ) Y12 )  ( <= ( + Y12 97 ) Y5 )  )
( or ( <= ( + X5 64 ) X13 )  ( <= ( + X13 49 ) X5 )  ( <= ( + Y5 34 ) Y13 )  ( <= ( + Y13 27 ) Y5 )  )
( or ( <= ( + X5 64 ) X14 )  ( <= ( + X14 97 ) X5 )  ( <= ( + Y5 34 ) Y14 )  ( <= ( + Y14 59 ) Y5 )  )
( or ( <= ( + X6 98 ) X7 )  ( <= ( + X7 44 ) X6 )  ( <= ( + Y6 15 ) Y7 )  ( <= ( + Y7 42 ) Y6 )  )
( or ( <= ( + X6 98 ) X8 )  ( <= ( + X8 44 ) X6 )  ( <= ( + Y6 15 ) Y8 )  ( <= ( + Y8 3 ) Y6 )  )
( or ( <= ( + X6 98 ) X9 )  ( <= ( + X9 53 ) X6 )  ( <= ( + Y6 15 ) Y9 )  ( <= ( + Y9 80 ) Y6 )  )
( or ( <= ( + X6 98 ) X10 )  ( <= ( + X10 84 ) X6 )  ( <= ( + Y6 15 ) Y10 )  ( <= ( + Y10 51 ) Y6 )  )
( or ( <= ( + X6 98 ) X11 )  ( <= ( + X11 20 ) X6 )  ( <= ( + Y6 15 ) Y11 )  ( <= ( + Y11 26 ) Y6 )  )
( or ( <= ( + X6 98 ) X12 )  ( <= ( + X12 9 ) X6 )  ( <= ( + Y6 15 ) Y12 )  ( <= ( + Y12 97 ) Y6 )  )
( or ( <= ( + X6 98 ) X13 )  ( <= ( + X13 49 ) X6 )  ( <= ( + Y6 15 ) Y13 )  ( <= ( + Y13 27 ) Y6 )  )
( or ( <= ( + X6 98 ) X14 )  ( <= ( + X14 97 ) X6 )  ( <= ( + Y6 15 ) Y14 )  ( <= ( + Y14 59 ) Y6 )  )
( or ( <= ( + X7 44 ) X8 )  ( <= ( + X8 44 ) X7 )  ( <= ( + Y7 42 ) Y8 )  ( <= ( + Y8 3 ) Y7 )  )
( or ( <= ( + X7 44 ) X9 )  ( <= ( + X9 53 ) X7 )  ( <= ( + Y7 42 ) Y9 )  ( <= ( + Y9 80 ) Y7 )  )
( or ( <= ( + X7 44 ) X10 )  ( <= ( + X10 84 ) X7 )  ( <= ( + Y7 42 ) Y10 )  ( <= ( + Y10 51 ) Y7 )  )
( or ( <= ( + X7 44 ) X11 )  ( <= ( + X11 20 ) X7 )  ( <= ( + Y7 42 ) Y11 )  ( <= ( + Y11 26 ) Y7 )  )
( or ( <= ( + X7 44 ) X12 )  ( <= ( + X12 9 ) X7 )  ( <= ( + Y7 42 ) Y12 )  ( <= ( + Y12 97 ) Y7 )  )
( or ( <= ( + X7 44 ) X13 )  ( <= ( + X13 49 ) X7 )  ( <= ( + Y7 42 ) Y13 )  ( <= ( + Y13 27 ) Y7 )  )
( or ( <= ( + X7 44 ) X14 )  ( <= ( + X14 97 ) X7 )  ( <= ( + Y7 42 ) Y14 )  ( <= ( + Y14 59 ) Y7 )  )
( or ( <= ( + X8 44 ) X9 )  ( <= ( + X9 53 ) X8 )  ( <= ( + Y8 3 ) Y9 )  ( <= ( + Y9 80 ) Y8 )  )
( or ( <= ( + X8 44 ) X10 )  ( <= ( + X10 84 ) X8 )  ( <= ( + Y8 3 ) Y10 )  ( <= ( + Y10 51 ) Y8 )  )
( or ( <= ( + X8 44 ) X11 )  ( <= ( + X11 20 ) X8 )  ( <= ( + Y8 3 ) Y11 )  ( <= ( + Y11 26 ) Y8 )  )
( or ( <= ( + X8 44 ) X12 )  ( <= ( + X12 9 ) X8 )  ( <= ( + Y8 3 ) Y12 )  ( <= ( + Y12 97 ) Y8 )  )
( or ( <= ( + X8 44 ) X13 )  ( <= ( + X13 49 ) X8 )  ( <= ( + Y8 3 ) Y13 )  ( <= ( + Y13 27 ) Y8 )  )
( or ( <= ( + X8 44 ) X14 )  ( <= ( + X14 97 ) X8 )  ( <= ( + Y8 3 ) Y14 )  ( <= ( + Y14 59 ) Y8 )  )
( or ( <= ( + X9 53 ) X10 )  ( <= ( + X10 84 ) X9 )  ( <= ( + Y9 80 ) Y10 )  ( <= ( + Y10 51 ) Y9 )  )
( or ( <= ( + X9 53 ) X11 )  ( <= ( + X11 20 ) X9 )  ( <= ( + Y9 80 ) Y11 )  ( <= ( + Y11 26 ) Y9 )  )
( or ( <= ( + X9 53 ) X12 )  ( <= ( + X12 9 ) X9 )  ( <= ( + Y9 80 ) Y12 )  ( <= ( + Y12 97 ) Y9 )  )
( or ( <= ( + X9 53 ) X13 )  ( <= ( + X13 49 ) X9 )  ( <= ( + Y9 80 ) Y13 )  ( <= ( + Y13 27 ) Y9 )  )
( or ( <= ( + X9 53 ) X14 )  ( <= ( + X14 97 ) X9 )  ( <= ( + Y9 80 ) Y14 )  ( <= ( + Y14 59 ) Y9 )  )
( or ( <= ( + X10 84 ) X11 )  ( <= ( + X11 20 ) X10 )  ( <= ( + Y10 51 ) Y11 )  ( <= ( + Y11 26 ) Y10 )  )
( or ( <= ( + X10 84 ) X12 )  ( <= ( + X12 9 ) X10 )  ( <= ( + Y10 51 ) Y12 )  ( <= ( + Y12 97 ) Y10 )  )
( or ( <= ( + X10 84 ) X13 )  ( <= ( + X13 49 ) X10 )  ( <= ( + Y10 51 ) Y13 )  ( <= ( + Y13 27 ) Y10 )  )
( or ( <= ( + X10 84 ) X14 )  ( <= ( + X14 97 ) X10 )  ( <= ( + Y10 51 ) Y14 )  ( <= ( + Y14 59 ) Y10 )  )
( or ( <= ( + X11 20 ) X12 )  ( <= ( + X12 9 ) X11 )  ( <= ( + Y11 26 ) Y12 )  ( <= ( + Y12 97 ) Y11 )  )
( or ( <= ( + X11 20 ) X13 )  ( <= ( + X13 49 ) X11 )  ( <= ( + Y11 26 ) Y13 )  ( <= ( + Y13 27 ) Y11 )  )
( or ( <= ( + X11 20 ) X14 )  ( <= ( + X14 97 ) X11 )  ( <= ( + Y11 26 ) Y14 )  ( <= ( + Y14 59 ) Y11 )  )
( or ( <= ( + X12 9 ) X13 )  ( <= ( + X13 49 ) X12 )  ( <= ( + Y12 97 ) Y13 )  ( <= ( + Y13 27 ) Y12 )  )
( or ( <= ( + X12 9 ) X14 )  ( <= ( + X14 97 ) X12 )  ( <= ( + Y12 97 ) Y14 )  ( <= ( + Y14 59 ) Y12 )  )
( or ( <= ( + X13 49 ) X14 )  ( <= ( + X14 97 ) X13 )  ( <= ( + Y13 27 ) Y14 )  ( <= ( + Y14 59 ) Y13 )  )
( >= X0 0)
( <= ( + X0 99) Z)
( >= Y0 0)
( <= ( + Y0 13 ) 193)
( >= X1 0)
( <= ( + X1 59) Z)
( >= Y1 0)
( <= ( + Y1 48 ) 193)
( >= X2 0)
( <= ( + X2 57) Z)
( >= Y2 0)
( <= ( + Y2 51 ) 193)
( >= X3 0)
( <= ( + X3 73) Z)
( >= Y3 0)
( <= ( + Y3 46 ) 193)
( >= X4 0)
( <= ( + X4 42) Z)
( >= Y4 0)
( <= ( + Y4 48 ) 193)
( >= X5 0)
( <= ( + X5 64) Z)
( >= Y5 0)
( <= ( + Y5 34 ) 193)
( >= X6 0)
( <= ( + X6 98) Z)
( >= Y6 0)
( <= ( + Y6 15 ) 193)
( >= X7 0)
( <= ( + X7 44) Z)
( >= Y7 0)
( <= ( + Y7 42 ) 193)
( >= X8 0)
( <= ( + X8 44) Z)
( >= Y8 0)
( <= ( + Y8 3 ) 193)
( >= X9 0)
( <= ( + X9 53) Z)
( >= Y9 0)
( <= ( + Y9 80 ) 193)
( >= X10 0)
( <= ( + X10 84) Z)
( >= Y10 0)
( <= ( + Y10 51 ) 193)
( >= X11 0)
( <= ( + X11 20) Z)
( >= Y11 0)
( <= ( + Y11 26 ) 193)
( >= X12 0)
( <= ( + X12 9) Z)
( >= Y12 0)
( <= ( + Y12 97 ) 193)
( >= X13 0)
( <= ( + X13 49) Z)
( >= Y13 0)
( <= ( + Y13 27 ) 193)
( >= X14 0)
( <= ( + X14 97) Z)
( >= Y14 0)
( <= ( + Y14 59 ) 193)
) )
)(=> $phi $goal))))